     mass 1  18.0152

     # MOLC parameters.
     # epsilon0, sigma0, eps_x, eps_y, eps_z, n_charges, (xi, yi, zi, qi)_ntimes
     pair_coeff 1 1 0.18519 3.1589 1 1 1 3 &
      0.00000  0.154600  0.0  -1.1128 &
      0.75695  0.585882  0.0   0.5564 &
     -0.75695  0.585882  0.0   0.5564
